c *********************************
c * Circuit generated by BenCGen
c *
c * Parity_418
c *
c * Ports with 1 gate(s): 1
c * Ports with 2 gate(s): 418
c * Total gates: 419
c *********************************
p cnf 837 1673
1 421 0
-1 -421 0
1 -420 0
421 -420 0
-1 -421 420 0
1 2 -422 0
-1 2 422 0
1 -2 422 0
-1 -2 -422 0
3 4 -423 0
-3 4 423 0
3 -4 423 0
-3 -4 -423 0
5 6 -424 0
-5 6 424 0
5 -6 424 0
-5 -6 -424 0
7 8 -425 0
-7 8 425 0
7 -8 425 0
-7 -8 -425 0
9 10 -426 0
-9 10 426 0
9 -10 426 0
-9 -10 -426 0
11 12 -427 0
-11 12 427 0
11 -12 427 0
-11 -12 -427 0
13 14 -428 0
-13 14 428 0
13 -14 428 0
-13 -14 -428 0
15 16 -429 0
-15 16 429 0
15 -16 429 0
-15 -16 -429 0
17 18 -430 0
-17 18 430 0
17 -18 430 0
-17 -18 -430 0
19 20 -431 0
-19 20 431 0
19 -20 431 0
-19 -20 -431 0
21 22 -432 0
-21 22 432 0
21 -22 432 0
-21 -22 -432 0
23 24 -433 0
-23 24 433 0
23 -24 433 0
-23 -24 -433 0
25 26 -434 0
-25 26 434 0
25 -26 434 0
-25 -26 -434 0
27 28 -435 0
-27 28 435 0
27 -28 435 0
-27 -28 -435 0
29 30 -436 0
-29 30 436 0
29 -30 436 0
-29 -30 -436 0
31 32 -437 0
-31 32 437 0
31 -32 437 0
-31 -32 -437 0
33 34 -438 0
-33 34 438 0
33 -34 438 0
-33 -34 -438 0
35 36 -439 0
-35 36 439 0
35 -36 439 0
-35 -36 -439 0
37 38 -440 0
-37 38 440 0
37 -38 440 0
-37 -38 -440 0
39 40 -441 0
-39 40 441 0
39 -40 441 0
-39 -40 -441 0
41 42 -442 0
-41 42 442 0
41 -42 442 0
-41 -42 -442 0
43 44 -443 0
-43 44 443 0
43 -44 443 0
-43 -44 -443 0
45 46 -444 0
-45 46 444 0
45 -46 444 0
-45 -46 -444 0
47 48 -445 0
-47 48 445 0
47 -48 445 0
-47 -48 -445 0
49 50 -446 0
-49 50 446 0
49 -50 446 0
-49 -50 -446 0
51 52 -447 0
-51 52 447 0
51 -52 447 0
-51 -52 -447 0
53 54 -448 0
-53 54 448 0
53 -54 448 0
-53 -54 -448 0
55 56 -449 0
-55 56 449 0
55 -56 449 0
-55 -56 -449 0
57 58 -450 0
-57 58 450 0
57 -58 450 0
-57 -58 -450 0
59 60 -451 0
-59 60 451 0
59 -60 451 0
-59 -60 -451 0
61 62 -452 0
-61 62 452 0
61 -62 452 0
-61 -62 -452 0
63 64 -453 0
-63 64 453 0
63 -64 453 0
-63 -64 -453 0
65 66 -454 0
-65 66 454 0
65 -66 454 0
-65 -66 -454 0
67 68 -455 0
-67 68 455 0
67 -68 455 0
-67 -68 -455 0
69 70 -456 0
-69 70 456 0
69 -70 456 0
-69 -70 -456 0
71 72 -457 0
-71 72 457 0
71 -72 457 0
-71 -72 -457 0
73 74 -458 0
-73 74 458 0
73 -74 458 0
-73 -74 -458 0
75 76 -459 0
-75 76 459 0
75 -76 459 0
-75 -76 -459 0
77 78 -460 0
-77 78 460 0
77 -78 460 0
-77 -78 -460 0
79 80 -461 0
-79 80 461 0
79 -80 461 0
-79 -80 -461 0
81 82 -462 0
-81 82 462 0
81 -82 462 0
-81 -82 -462 0
83 84 -463 0
-83 84 463 0
83 -84 463 0
-83 -84 -463 0
85 86 -464 0
-85 86 464 0
85 -86 464 0
-85 -86 -464 0
87 88 -465 0
-87 88 465 0
87 -88 465 0
-87 -88 -465 0
89 90 -466 0
-89 90 466 0
89 -90 466 0
-89 -90 -466 0
91 92 -467 0
-91 92 467 0
91 -92 467 0
-91 -92 -467 0
93 94 -468 0
-93 94 468 0
93 -94 468 0
-93 -94 -468 0
95 96 -469 0
-95 96 469 0
95 -96 469 0
-95 -96 -469 0
97 98 -470 0
-97 98 470 0
97 -98 470 0
-97 -98 -470 0
99 100 -471 0
-99 100 471 0
99 -100 471 0
-99 -100 -471 0
101 102 -472 0
-101 102 472 0
101 -102 472 0
-101 -102 -472 0
103 104 -473 0
-103 104 473 0
103 -104 473 0
-103 -104 -473 0
105 106 -474 0
-105 106 474 0
105 -106 474 0
-105 -106 -474 0
107 108 -475 0
-107 108 475 0
107 -108 475 0
-107 -108 -475 0
109 110 -476 0
-109 110 476 0
109 -110 476 0
-109 -110 -476 0
111 112 -477 0
-111 112 477 0
111 -112 477 0
-111 -112 -477 0
113 114 -478 0
-113 114 478 0
113 -114 478 0
-113 -114 -478 0
115 116 -479 0
-115 116 479 0
115 -116 479 0
-115 -116 -479 0
117 118 -480 0
-117 118 480 0
117 -118 480 0
-117 -118 -480 0
119 120 -481 0
-119 120 481 0
119 -120 481 0
-119 -120 -481 0
121 122 -482 0
-121 122 482 0
121 -122 482 0
-121 -122 -482 0
123 124 -483 0
-123 124 483 0
123 -124 483 0
-123 -124 -483 0
125 126 -484 0
-125 126 484 0
125 -126 484 0
-125 -126 -484 0
127 128 -485 0
-127 128 485 0
127 -128 485 0
-127 -128 -485 0
129 130 -486 0
-129 130 486 0
129 -130 486 0
-129 -130 -486 0
131 132 -487 0
-131 132 487 0
131 -132 487 0
-131 -132 -487 0
133 134 -488 0
-133 134 488 0
133 -134 488 0
-133 -134 -488 0
135 136 -489 0
-135 136 489 0
135 -136 489 0
-135 -136 -489 0
137 138 -490 0
-137 138 490 0
137 -138 490 0
-137 -138 -490 0
139 140 -491 0
-139 140 491 0
139 -140 491 0
-139 -140 -491 0
141 142 -492 0
-141 142 492 0
141 -142 492 0
-141 -142 -492 0
143 144 -493 0
-143 144 493 0
143 -144 493 0
-143 -144 -493 0
145 146 -494 0
-145 146 494 0
145 -146 494 0
-145 -146 -494 0
147 148 -495 0
-147 148 495 0
147 -148 495 0
-147 -148 -495 0
149 150 -496 0
-149 150 496 0
149 -150 496 0
-149 -150 -496 0
151 152 -497 0
-151 152 497 0
151 -152 497 0
-151 -152 -497 0
153 154 -498 0
-153 154 498 0
153 -154 498 0
-153 -154 -498 0
155 156 -499 0
-155 156 499 0
155 -156 499 0
-155 -156 -499 0
157 158 -500 0
-157 158 500 0
157 -158 500 0
-157 -158 -500 0
159 160 -501 0
-159 160 501 0
159 -160 501 0
-159 -160 -501 0
161 162 -502 0
-161 162 502 0
161 -162 502 0
-161 -162 -502 0
163 164 -503 0
-163 164 503 0
163 -164 503 0
-163 -164 -503 0
165 166 -504 0
-165 166 504 0
165 -166 504 0
-165 -166 -504 0
167 168 -505 0
-167 168 505 0
167 -168 505 0
-167 -168 -505 0
169 170 -506 0
-169 170 506 0
169 -170 506 0
-169 -170 -506 0
171 172 -507 0
-171 172 507 0
171 -172 507 0
-171 -172 -507 0
173 174 -508 0
-173 174 508 0
173 -174 508 0
-173 -174 -508 0
175 176 -509 0
-175 176 509 0
175 -176 509 0
-175 -176 -509 0
177 178 -510 0
-177 178 510 0
177 -178 510 0
-177 -178 -510 0
179 180 -511 0
-179 180 511 0
179 -180 511 0
-179 -180 -511 0
181 182 -512 0
-181 182 512 0
181 -182 512 0
-181 -182 -512 0
183 184 -513 0
-183 184 513 0
183 -184 513 0
-183 -184 -513 0
185 186 -514 0
-185 186 514 0
185 -186 514 0
-185 -186 -514 0
187 188 -515 0
-187 188 515 0
187 -188 515 0
-187 -188 -515 0
189 190 -516 0
-189 190 516 0
189 -190 516 0
-189 -190 -516 0
191 192 -517 0
-191 192 517 0
191 -192 517 0
-191 -192 -517 0
193 194 -518 0
-193 194 518 0
193 -194 518 0
-193 -194 -518 0
195 196 -519 0
-195 196 519 0
195 -196 519 0
-195 -196 -519 0
197 198 -520 0
-197 198 520 0
197 -198 520 0
-197 -198 -520 0
199 200 -521 0
-199 200 521 0
199 -200 521 0
-199 -200 -521 0
201 202 -522 0
-201 202 522 0
201 -202 522 0
-201 -202 -522 0
203 204 -523 0
-203 204 523 0
203 -204 523 0
-203 -204 -523 0
205 206 -524 0
-205 206 524 0
205 -206 524 0
-205 -206 -524 0
207 208 -525 0
-207 208 525 0
207 -208 525 0
-207 -208 -525 0
209 210 -526 0
-209 210 526 0
209 -210 526 0
-209 -210 -526 0
211 212 -527 0
-211 212 527 0
211 -212 527 0
-211 -212 -527 0
213 214 -528 0
-213 214 528 0
213 -214 528 0
-213 -214 -528 0
215 216 -529 0
-215 216 529 0
215 -216 529 0
-215 -216 -529 0
217 218 -530 0
-217 218 530 0
217 -218 530 0
-217 -218 -530 0
219 220 -531 0
-219 220 531 0
219 -220 531 0
-219 -220 -531 0
221 222 -532 0
-221 222 532 0
221 -222 532 0
-221 -222 -532 0
223 224 -533 0
-223 224 533 0
223 -224 533 0
-223 -224 -533 0
225 226 -534 0
-225 226 534 0
225 -226 534 0
-225 -226 -534 0
227 228 -535 0
-227 228 535 0
227 -228 535 0
-227 -228 -535 0
229 230 -536 0
-229 230 536 0
229 -230 536 0
-229 -230 -536 0
231 232 -537 0
-231 232 537 0
231 -232 537 0
-231 -232 -537 0
233 234 -538 0
-233 234 538 0
233 -234 538 0
-233 -234 -538 0
235 236 -539 0
-235 236 539 0
235 -236 539 0
-235 -236 -539 0
237 238 -540 0
-237 238 540 0
237 -238 540 0
-237 -238 -540 0
239 240 -541 0
-239 240 541 0
239 -240 541 0
-239 -240 -541 0
241 242 -542 0
-241 242 542 0
241 -242 542 0
-241 -242 -542 0
243 244 -543 0
-243 244 543 0
243 -244 543 0
-243 -244 -543 0
245 246 -544 0
-245 246 544 0
245 -246 544 0
-245 -246 -544 0
247 248 -545 0
-247 248 545 0
247 -248 545 0
-247 -248 -545 0
249 250 -546 0
-249 250 546 0
249 -250 546 0
-249 -250 -546 0
251 252 -547 0
-251 252 547 0
251 -252 547 0
-251 -252 -547 0
253 254 -548 0
-253 254 548 0
253 -254 548 0
-253 -254 -548 0
255 256 -549 0
-255 256 549 0
255 -256 549 0
-255 -256 -549 0
257 258 -550 0
-257 258 550 0
257 -258 550 0
-257 -258 -550 0
259 260 -551 0
-259 260 551 0
259 -260 551 0
-259 -260 -551 0
261 262 -552 0
-261 262 552 0
261 -262 552 0
-261 -262 -552 0
263 264 -553 0
-263 264 553 0
263 -264 553 0
-263 -264 -553 0
265 266 -554 0
-265 266 554 0
265 -266 554 0
-265 -266 -554 0
267 268 -555 0
-267 268 555 0
267 -268 555 0
-267 -268 -555 0
269 270 -556 0
-269 270 556 0
269 -270 556 0
-269 -270 -556 0
271 272 -557 0
-271 272 557 0
271 -272 557 0
-271 -272 -557 0
273 274 -558 0
-273 274 558 0
273 -274 558 0
-273 -274 -558 0
275 276 -559 0
-275 276 559 0
275 -276 559 0
-275 -276 -559 0
277 278 -560 0
-277 278 560 0
277 -278 560 0
-277 -278 -560 0
279 280 -561 0
-279 280 561 0
279 -280 561 0
-279 -280 -561 0
281 282 -562 0
-281 282 562 0
281 -282 562 0
-281 -282 -562 0
283 284 -563 0
-283 284 563 0
283 -284 563 0
-283 -284 -563 0
285 286 -564 0
-285 286 564 0
285 -286 564 0
-285 -286 -564 0
287 288 -565 0
-287 288 565 0
287 -288 565 0
-287 -288 -565 0
289 290 -566 0
-289 290 566 0
289 -290 566 0
-289 -290 -566 0
291 292 -567 0
-291 292 567 0
291 -292 567 0
-291 -292 -567 0
293 294 -568 0
-293 294 568 0
293 -294 568 0
-293 -294 -568 0
295 296 -569 0
-295 296 569 0
295 -296 569 0
-295 -296 -569 0
297 298 -570 0
-297 298 570 0
297 -298 570 0
-297 -298 -570 0
299 300 -571 0
-299 300 571 0
299 -300 571 0
-299 -300 -571 0
301 302 -572 0
-301 302 572 0
301 -302 572 0
-301 -302 -572 0
303 304 -573 0
-303 304 573 0
303 -304 573 0
-303 -304 -573 0
305 306 -574 0
-305 306 574 0
305 -306 574 0
-305 -306 -574 0
307 308 -575 0
-307 308 575 0
307 -308 575 0
-307 -308 -575 0
309 310 -576 0
-309 310 576 0
309 -310 576 0
-309 -310 -576 0
311 312 -577 0
-311 312 577 0
311 -312 577 0
-311 -312 -577 0
313 314 -578 0
-313 314 578 0
313 -314 578 0
-313 -314 -578 0
315 316 -579 0
-315 316 579 0
315 -316 579 0
-315 -316 -579 0
317 318 -580 0
-317 318 580 0
317 -318 580 0
-317 -318 -580 0
319 320 -581 0
-319 320 581 0
319 -320 581 0
-319 -320 -581 0
321 322 -582 0
-321 322 582 0
321 -322 582 0
-321 -322 -582 0
323 324 -583 0
-323 324 583 0
323 -324 583 0
-323 -324 -583 0
325 326 -584 0
-325 326 584 0
325 -326 584 0
-325 -326 -584 0
327 328 -585 0
-327 328 585 0
327 -328 585 0
-327 -328 -585 0
329 330 -586 0
-329 330 586 0
329 -330 586 0
-329 -330 -586 0
331 332 -587 0
-331 332 587 0
331 -332 587 0
-331 -332 -587 0
333 334 -588 0
-333 334 588 0
333 -334 588 0
-333 -334 -588 0
335 336 -589 0
-335 336 589 0
335 -336 589 0
-335 -336 -589 0
337 338 -590 0
-337 338 590 0
337 -338 590 0
-337 -338 -590 0
339 340 -591 0
-339 340 591 0
339 -340 591 0
-339 -340 -591 0
341 342 -592 0
-341 342 592 0
341 -342 592 0
-341 -342 -592 0
343 344 -593 0
-343 344 593 0
343 -344 593 0
-343 -344 -593 0
345 346 -594 0
-345 346 594 0
345 -346 594 0
-345 -346 -594 0
347 348 -595 0
-347 348 595 0
347 -348 595 0
-347 -348 -595 0
349 350 -596 0
-349 350 596 0
349 -350 596 0
-349 -350 -596 0
351 352 -597 0
-351 352 597 0
351 -352 597 0
-351 -352 -597 0
353 354 -598 0
-353 354 598 0
353 -354 598 0
-353 -354 -598 0
355 356 -599 0
-355 356 599 0
355 -356 599 0
-355 -356 -599 0
357 358 -600 0
-357 358 600 0
357 -358 600 0
-357 -358 -600 0
359 360 -601 0
-359 360 601 0
359 -360 601 0
-359 -360 -601 0
361 362 -602 0
-361 362 602 0
361 -362 602 0
-361 -362 -602 0
363 364 -603 0
-363 364 603 0
363 -364 603 0
-363 -364 -603 0
365 366 -604 0
-365 366 604 0
365 -366 604 0
-365 -366 -604 0
367 368 -605 0
-367 368 605 0
367 -368 605 0
-367 -368 -605 0
369 370 -606 0
-369 370 606 0
369 -370 606 0
-369 -370 -606 0
371 372 -607 0
-371 372 607 0
371 -372 607 0
-371 -372 -607 0
373 374 -608 0
-373 374 608 0
373 -374 608 0
-373 -374 -608 0
375 376 -609 0
-375 376 609 0
375 -376 609 0
-375 -376 -609 0
377 378 -610 0
-377 378 610 0
377 -378 610 0
-377 -378 -610 0
379 380 -611 0
-379 380 611 0
379 -380 611 0
-379 -380 -611 0
381 382 -612 0
-381 382 612 0
381 -382 612 0
-381 -382 -612 0
383 384 -613 0
-383 384 613 0
383 -384 613 0
-383 -384 -613 0
385 386 -614 0
-385 386 614 0
385 -386 614 0
-385 -386 -614 0
387 388 -615 0
-387 388 615 0
387 -388 615 0
-387 -388 -615 0
389 390 -616 0
-389 390 616 0
389 -390 616 0
-389 -390 -616 0
391 392 -617 0
-391 392 617 0
391 -392 617 0
-391 -392 -617 0
393 394 -618 0
-393 394 618 0
393 -394 618 0
-393 -394 -618 0
395 396 -619 0
-395 396 619 0
395 -396 619 0
-395 -396 -619 0
397 398 -620 0
-397 398 620 0
397 -398 620 0
-397 -398 -620 0
399 400 -621 0
-399 400 621 0
399 -400 621 0
-399 -400 -621 0
401 402 -622 0
-401 402 622 0
401 -402 622 0
-401 -402 -622 0
403 404 -623 0
-403 404 623 0
403 -404 623 0
-403 -404 -623 0
405 406 -624 0
-405 406 624 0
405 -406 624 0
-405 -406 -624 0
407 408 -625 0
-407 408 625 0
407 -408 625 0
-407 -408 -625 0
409 410 -626 0
-409 410 626 0
409 -410 626 0
-409 -410 -626 0
411 412 -627 0
-411 412 627 0
411 -412 627 0
-411 -412 -627 0
413 414 -628 0
-413 414 628 0
413 -414 628 0
-413 -414 -628 0
415 416 -629 0
-415 416 629 0
415 -416 629 0
-415 -416 -629 0
417 418 -630 0
-417 418 630 0
417 -418 630 0
-417 -418 -630 0
422 423 -631 0
-422 423 631 0
422 -423 631 0
-422 -423 -631 0
424 425 -632 0
-424 425 632 0
424 -425 632 0
-424 -425 -632 0
426 427 -633 0
-426 427 633 0
426 -427 633 0
-426 -427 -633 0
428 429 -634 0
-428 429 634 0
428 -429 634 0
-428 -429 -634 0
430 431 -635 0
-430 431 635 0
430 -431 635 0
-430 -431 -635 0
432 433 -636 0
-432 433 636 0
432 -433 636 0
-432 -433 -636 0
434 435 -637 0
-434 435 637 0
434 -435 637 0
-434 -435 -637 0
436 437 -638 0
-436 437 638 0
436 -437 638 0
-436 -437 -638 0
438 439 -639 0
-438 439 639 0
438 -439 639 0
-438 -439 -639 0
440 441 -640 0
-440 441 640 0
440 -441 640 0
-440 -441 -640 0
442 443 -641 0
-442 443 641 0
442 -443 641 0
-442 -443 -641 0
444 445 -642 0
-444 445 642 0
444 -445 642 0
-444 -445 -642 0
446 447 -643 0
-446 447 643 0
446 -447 643 0
-446 -447 -643 0
448 449 -644 0
-448 449 644 0
448 -449 644 0
-448 -449 -644 0
450 451 -645 0
-450 451 645 0
450 -451 645 0
-450 -451 -645 0
452 453 -646 0
-452 453 646 0
452 -453 646 0
-452 -453 -646 0
454 455 -647 0
-454 455 647 0
454 -455 647 0
-454 -455 -647 0
456 457 -648 0
-456 457 648 0
456 -457 648 0
-456 -457 -648 0
458 459 -649 0
-458 459 649 0
458 -459 649 0
-458 -459 -649 0
460 461 -650 0
-460 461 650 0
460 -461 650 0
-460 -461 -650 0
462 463 -651 0
-462 463 651 0
462 -463 651 0
-462 -463 -651 0
464 465 -652 0
-464 465 652 0
464 -465 652 0
-464 -465 -652 0
466 467 -653 0
-466 467 653 0
466 -467 653 0
-466 -467 -653 0
468 469 -654 0
-468 469 654 0
468 -469 654 0
-468 -469 -654 0
470 471 -655 0
-470 471 655 0
470 -471 655 0
-470 -471 -655 0
472 473 -656 0
-472 473 656 0
472 -473 656 0
-472 -473 -656 0
474 475 -657 0
-474 475 657 0
474 -475 657 0
-474 -475 -657 0
476 477 -658 0
-476 477 658 0
476 -477 658 0
-476 -477 -658 0
478 479 -659 0
-478 479 659 0
478 -479 659 0
-478 -479 -659 0
480 481 -660 0
-480 481 660 0
480 -481 660 0
-480 -481 -660 0
482 483 -661 0
-482 483 661 0
482 -483 661 0
-482 -483 -661 0
484 485 -662 0
-484 485 662 0
484 -485 662 0
-484 -485 -662 0
486 487 -663 0
-486 487 663 0
486 -487 663 0
-486 -487 -663 0
488 489 -664 0
-488 489 664 0
488 -489 664 0
-488 -489 -664 0
490 491 -665 0
-490 491 665 0
490 -491 665 0
-490 -491 -665 0
492 493 -666 0
-492 493 666 0
492 -493 666 0
-492 -493 -666 0
494 495 -667 0
-494 495 667 0
494 -495 667 0
-494 -495 -667 0
496 497 -668 0
-496 497 668 0
496 -497 668 0
-496 -497 -668 0
498 499 -669 0
-498 499 669 0
498 -499 669 0
-498 -499 -669 0
500 501 -670 0
-500 501 670 0
500 -501 670 0
-500 -501 -670 0
502 503 -671 0
-502 503 671 0
502 -503 671 0
-502 -503 -671 0
504 505 -672 0
-504 505 672 0
504 -505 672 0
-504 -505 -672 0
506 507 -673 0
-506 507 673 0
506 -507 673 0
-506 -507 -673 0
508 509 -674 0
-508 509 674 0
508 -509 674 0
-508 -509 -674 0
510 511 -675 0
-510 511 675 0
510 -511 675 0
-510 -511 -675 0
512 513 -676 0
-512 513 676 0
512 -513 676 0
-512 -513 -676 0
514 515 -677 0
-514 515 677 0
514 -515 677 0
-514 -515 -677 0
516 517 -678 0
-516 517 678 0
516 -517 678 0
-516 -517 -678 0
518 519 -679 0
-518 519 679 0
518 -519 679 0
-518 -519 -679 0
520 521 -680 0
-520 521 680 0
520 -521 680 0
-520 -521 -680 0
522 523 -681 0
-522 523 681 0
522 -523 681 0
-522 -523 -681 0
524 525 -682 0
-524 525 682 0
524 -525 682 0
-524 -525 -682 0
526 527 -683 0
-526 527 683 0
526 -527 683 0
-526 -527 -683 0
528 529 -684 0
-528 529 684 0
528 -529 684 0
-528 -529 -684 0
530 531 -685 0
-530 531 685 0
530 -531 685 0
-530 -531 -685 0
532 533 -686 0
-532 533 686 0
532 -533 686 0
-532 -533 -686 0
534 535 -687 0
-534 535 687 0
534 -535 687 0
-534 -535 -687 0
536 537 -688 0
-536 537 688 0
536 -537 688 0
-536 -537 -688 0
538 539 -689 0
-538 539 689 0
538 -539 689 0
-538 -539 -689 0
540 541 -690 0
-540 541 690 0
540 -541 690 0
-540 -541 -690 0
542 543 -691 0
-542 543 691 0
542 -543 691 0
-542 -543 -691 0
544 545 -692 0
-544 545 692 0
544 -545 692 0
-544 -545 -692 0
546 547 -693 0
-546 547 693 0
546 -547 693 0
-546 -547 -693 0
548 549 -694 0
-548 549 694 0
548 -549 694 0
-548 -549 -694 0
550 551 -695 0
-550 551 695 0
550 -551 695 0
-550 -551 -695 0
552 553 -696 0
-552 553 696 0
552 -553 696 0
-552 -553 -696 0
554 555 -697 0
-554 555 697 0
554 -555 697 0
-554 -555 -697 0
556 557 -698 0
-556 557 698 0
556 -557 698 0
-556 -557 -698 0
558 559 -699 0
-558 559 699 0
558 -559 699 0
-558 -559 -699 0
560 561 -700 0
-560 561 700 0
560 -561 700 0
-560 -561 -700 0
562 563 -701 0
-562 563 701 0
562 -563 701 0
-562 -563 -701 0
564 565 -702 0
-564 565 702 0
564 -565 702 0
-564 -565 -702 0
566 567 -703 0
-566 567 703 0
566 -567 703 0
-566 -567 -703 0
568 569 -704 0
-568 569 704 0
568 -569 704 0
-568 -569 -704 0
570 571 -705 0
-570 571 705 0
570 -571 705 0
-570 -571 -705 0
572 573 -706 0
-572 573 706 0
572 -573 706 0
-572 -573 -706 0
574 575 -707 0
-574 575 707 0
574 -575 707 0
-574 -575 -707 0
576 577 -708 0
-576 577 708 0
576 -577 708 0
-576 -577 -708 0
578 579 -709 0
-578 579 709 0
578 -579 709 0
-578 -579 -709 0
580 581 -710 0
-580 581 710 0
580 -581 710 0
-580 -581 -710 0
582 583 -711 0
-582 583 711 0
582 -583 711 0
-582 -583 -711 0
584 585 -712 0
-584 585 712 0
584 -585 712 0
-584 -585 -712 0
586 587 -713 0
-586 587 713 0
586 -587 713 0
-586 -587 -713 0
588 589 -714 0
-588 589 714 0
588 -589 714 0
-588 -589 -714 0
590 591 -715 0
-590 591 715 0
590 -591 715 0
-590 -591 -715 0
592 593 -716 0
-592 593 716 0
592 -593 716 0
-592 -593 -716 0
594 595 -717 0
-594 595 717 0
594 -595 717 0
-594 -595 -717 0
596 597 -718 0
-596 597 718 0
596 -597 718 0
-596 -597 -718 0
598 599 -719 0
-598 599 719 0
598 -599 719 0
-598 -599 -719 0
600 601 -720 0
-600 601 720 0
600 -601 720 0
-600 -601 -720 0
602 603 -721 0
-602 603 721 0
602 -603 721 0
-602 -603 -721 0
604 605 -722 0
-604 605 722 0
604 -605 722 0
-604 -605 -722 0
606 607 -723 0
-606 607 723 0
606 -607 723 0
-606 -607 -723 0
608 609 -724 0
-608 609 724 0
608 -609 724 0
-608 -609 -724 0
610 611 -725 0
-610 611 725 0
610 -611 725 0
-610 -611 -725 0
612 613 -726 0
-612 613 726 0
612 -613 726 0
-612 -613 -726 0
614 615 -727 0
-614 615 727 0
614 -615 727 0
-614 -615 -727 0
616 617 -728 0
-616 617 728 0
616 -617 728 0
-616 -617 -728 0
618 619 -729 0
-618 619 729 0
618 -619 729 0
-618 -619 -729 0
620 621 -730 0
-620 621 730 0
620 -621 730 0
-620 -621 -730 0
622 623 -731 0
-622 623 731 0
622 -623 731 0
-622 -623 -731 0
624 625 -732 0
-624 625 732 0
624 -625 732 0
-624 -625 -732 0
626 627 -733 0
-626 627 733 0
626 -627 733 0
-626 -627 -733 0
628 629 -734 0
-628 629 734 0
628 -629 734 0
-628 -629 -734 0
631 632 -735 0
-631 632 735 0
631 -632 735 0
-631 -632 -735 0
633 634 -736 0
-633 634 736 0
633 -634 736 0
-633 -634 -736 0
635 636 -737 0
-635 636 737 0
635 -636 737 0
-635 -636 -737 0
637 638 -738 0
-637 638 738 0
637 -638 738 0
-637 -638 -738 0
639 640 -739 0
-639 640 739 0
639 -640 739 0
-639 -640 -739 0
641 642 -740 0
-641 642 740 0
641 -642 740 0
-641 -642 -740 0
643 644 -741 0
-643 644 741 0
643 -644 741 0
-643 -644 -741 0
645 646 -742 0
-645 646 742 0
645 -646 742 0
-645 -646 -742 0
647 648 -743 0
-647 648 743 0
647 -648 743 0
-647 -648 -743 0
649 650 -744 0
-649 650 744 0
649 -650 744 0
-649 -650 -744 0
651 652 -745 0
-651 652 745 0
651 -652 745 0
-651 -652 -745 0
653 654 -746 0
-653 654 746 0
653 -654 746 0
-653 -654 -746 0
655 656 -747 0
-655 656 747 0
655 -656 747 0
-655 -656 -747 0
657 658 -748 0
-657 658 748 0
657 -658 748 0
-657 -658 -748 0
659 660 -749 0
-659 660 749 0
659 -660 749 0
-659 -660 -749 0
661 662 -750 0
-661 662 750 0
661 -662 750 0
-661 -662 -750 0
663 664 -751 0
-663 664 751 0
663 -664 751 0
-663 -664 -751 0
665 666 -752 0
-665 666 752 0
665 -666 752 0
-665 -666 -752 0
667 668 -753 0
-667 668 753 0
667 -668 753 0
-667 -668 -753 0
669 670 -754 0
-669 670 754 0
669 -670 754 0
-669 -670 -754 0
671 672 -755 0
-671 672 755 0
671 -672 755 0
-671 -672 -755 0
673 674 -756 0
-673 674 756 0
673 -674 756 0
-673 -674 -756 0
675 676 -757 0
-675 676 757 0
675 -676 757 0
-675 -676 -757 0
677 678 -758 0
-677 678 758 0
677 -678 758 0
-677 -678 -758 0
679 680 -759 0
-679 680 759 0
679 -680 759 0
-679 -680 -759 0
681 682 -760 0
-681 682 760 0
681 -682 760 0
-681 -682 -760 0
683 684 -761 0
-683 684 761 0
683 -684 761 0
-683 -684 -761 0
685 686 -762 0
-685 686 762 0
685 -686 762 0
-685 -686 -762 0
687 688 -763 0
-687 688 763 0
687 -688 763 0
-687 -688 -763 0
689 690 -764 0
-689 690 764 0
689 -690 764 0
-689 -690 -764 0
691 692 -765 0
-691 692 765 0
691 -692 765 0
-691 -692 -765 0
693 694 -766 0
-693 694 766 0
693 -694 766 0
-693 -694 -766 0
695 696 -767 0
-695 696 767 0
695 -696 767 0
-695 -696 -767 0
697 698 -768 0
-697 698 768 0
697 -698 768 0
-697 -698 -768 0
699 700 -769 0
-699 700 769 0
699 -700 769 0
-699 -700 -769 0
701 702 -770 0
-701 702 770 0
701 -702 770 0
-701 -702 -770 0
703 704 -771 0
-703 704 771 0
703 -704 771 0
-703 -704 -771 0
705 706 -772 0
-705 706 772 0
705 -706 772 0
-705 -706 -772 0
707 708 -773 0
-707 708 773 0
707 -708 773 0
-707 -708 -773 0
709 710 -774 0
-709 710 774 0
709 -710 774 0
-709 -710 -774 0
711 712 -775 0
-711 712 775 0
711 -712 775 0
-711 -712 -775 0
713 714 -776 0
-713 714 776 0
713 -714 776 0
-713 -714 -776 0
715 716 -777 0
-715 716 777 0
715 -716 777 0
-715 -716 -777 0
717 718 -778 0
-717 718 778 0
717 -718 778 0
-717 -718 -778 0
719 720 -779 0
-719 720 779 0
719 -720 779 0
-719 -720 -779 0
721 722 -780 0
-721 722 780 0
721 -722 780 0
-721 -722 -780 0
723 724 -781 0
-723 724 781 0
723 -724 781 0
-723 -724 -781 0
725 726 -782 0
-725 726 782 0
725 -726 782 0
-725 -726 -782 0
727 728 -783 0
-727 728 783 0
727 -728 783 0
-727 -728 -783 0
729 730 -784 0
-729 730 784 0
729 -730 784 0
-729 -730 -784 0
731 732 -785 0
-731 732 785 0
731 -732 785 0
-731 -732 -785 0
733 734 -786 0
-733 734 786 0
733 -734 786 0
-733 -734 -786 0
735 736 -787 0
-735 736 787 0
735 -736 787 0
-735 -736 -787 0
737 738 -788 0
-737 738 788 0
737 -738 788 0
-737 -738 -788 0
739 740 -789 0
-739 740 789 0
739 -740 789 0
-739 -740 -789 0
741 742 -790 0
-741 742 790 0
741 -742 790 0
-741 -742 -790 0
743 744 -791 0
-743 744 791 0
743 -744 791 0
-743 -744 -791 0
745 746 -792 0
-745 746 792 0
745 -746 792 0
-745 -746 -792 0
747 748 -793 0
-747 748 793 0
747 -748 793 0
-747 -748 -793 0
749 750 -794 0
-749 750 794 0
749 -750 794 0
-749 -750 -794 0
751 752 -795 0
-751 752 795 0
751 -752 795 0
-751 -752 -795 0
753 754 -796 0
-753 754 796 0
753 -754 796 0
-753 -754 -796 0
755 756 -797 0
-755 756 797 0
755 -756 797 0
-755 -756 -797 0
757 758 -798 0
-757 758 798 0
757 -758 798 0
-757 -758 -798 0
759 760 -799 0
-759 760 799 0
759 -760 799 0
-759 -760 -799 0
761 762 -800 0
-761 762 800 0
761 -762 800 0
-761 -762 -800 0
763 764 -801 0
-763 764 801 0
763 -764 801 0
-763 -764 -801 0
765 766 -802 0
-765 766 802 0
765 -766 802 0
-765 -766 -802 0
767 768 -803 0
-767 768 803 0
767 -768 803 0
-767 -768 -803 0
769 770 -804 0
-769 770 804 0
769 -770 804 0
-769 -770 -804 0
771 772 -805 0
-771 772 805 0
771 -772 805 0
-771 -772 -805 0
773 774 -806 0
-773 774 806 0
773 -774 806 0
-773 -774 -806 0
775 776 -807 0
-775 776 807 0
775 -776 807 0
-775 -776 -807 0
777 778 -808 0
-777 778 808 0
777 -778 808 0
-777 -778 -808 0
779 780 -809 0
-779 780 809 0
779 -780 809 0
-779 -780 -809 0
781 782 -810 0
-781 782 810 0
781 -782 810 0
-781 -782 -810 0
783 784 -811 0
-783 784 811 0
783 -784 811 0
-783 -784 -811 0
785 786 -812 0
-785 786 812 0
785 -786 812 0
-785 -786 -812 0
787 788 -813 0
-787 788 813 0
787 -788 813 0
-787 -788 -813 0
789 790 -814 0
-789 790 814 0
789 -790 814 0
-789 -790 -814 0
791 792 -815 0
-791 792 815 0
791 -792 815 0
-791 -792 -815 0
793 794 -816 0
-793 794 816 0
793 -794 816 0
-793 -794 -816 0
795 796 -817 0
-795 796 817 0
795 -796 817 0
-795 -796 -817 0
797 798 -818 0
-797 798 818 0
797 -798 818 0
-797 -798 -818 0
799 800 -819 0
-799 800 819 0
799 -800 819 0
-799 -800 -819 0
801 802 -820 0
-801 802 820 0
801 -802 820 0
-801 -802 -820 0
803 804 -821 0
-803 804 821 0
803 -804 821 0
-803 -804 -821 0
805 806 -822 0
-805 806 822 0
805 -806 822 0
-805 -806 -822 0
807 808 -823 0
-807 808 823 0
807 -808 823 0
-807 -808 -823 0
809 810 -824 0
-809 810 824 0
809 -810 824 0
-809 -810 -824 0
811 812 -825 0
-811 812 825 0
811 -812 825 0
-811 -812 -825 0
813 814 -826 0
-813 814 826 0
813 -814 826 0
-813 -814 -826 0
815 816 -827 0
-815 816 827 0
815 -816 827 0
-815 -816 -827 0
817 818 -828 0
-817 818 828 0
817 -818 828 0
-817 -818 -828 0
819 820 -829 0
-819 820 829 0
819 -820 829 0
-819 -820 -829 0
821 822 -830 0
-821 822 830 0
821 -822 830 0
-821 -822 -830 0
823 824 -831 0
-823 824 831 0
823 -824 831 0
-823 -824 -831 0
825 630 -832 0
-825 630 832 0
825 -630 832 0
-825 -630 -832 0
826 827 -833 0
-826 827 833 0
826 -827 833 0
-826 -827 -833 0
828 829 -834 0
-828 829 834 0
828 -829 834 0
-828 -829 -834 0
830 831 -835 0
-830 831 835 0
830 -831 835 0
-830 -831 -835 0
833 834 -836 0
-833 834 836 0
833 -834 836 0
-833 -834 -836 0
835 832 -837 0
-835 832 837 0
835 -832 837 0
-835 -832 -837 0
836 837 -419 0
-836 837 419 0
836 -837 419 0
-836 -837 -419 0
